
c turning on binary mode checking

c parsing input formula with 86 variables and 473 clauses

c finished parsing, read 2244 bytes from proof file

c detected empty clause; start verification via backward checking

c 136 of 473 clauses in core                            

c 47 of 90 lemmas in core using 203 resolution steps

c 0 RAT lemmas in core; 0 redundant literals in core lemmas

s VERIFIED

c verification time: 0.109 seconds
